p cnf 131 445
c t mc
-1 -2 -3 0
1 2 -3 0
-1 2 3 0
1 -2 3 0
-4 -3 0
-4 -3 0
3 4 0
8 -6 0
8 7 0
6 -7 -8 0
-8 -9 -10 0
8 9 -10 0
-8 9 10 0
8 -9 10 0
11 -1 0
11 -10 0
1 10 -11 0
-12 5 0
-12 11 0
-5 -11 12 0
13 3 0
13 -12 0
-3 12 -13 0
14 -5 -15 0
-14 5 -15 0
14 5 15 0
-14 -5 15 0
-16 15 0
-16 11 0
-15 -11 16 0
-13 -16 -17 0
13 16 -17 0
-13 16 17 0
13 -16 17 0
-19 -15 0
-19 -18 0
15 18 19 0
-20 17 0
-20 -19 0
-17 19 20 0
-22 21 0
-22 14 0
-21 -14 22 0
25 -23 0
25 24 0
23 -24 -25 0
-26 25 0
-26 -18 0
-25 18 26 0
-22 -26 -27 0
22 26 -27 0
-22 26 27 0
22 -26 27 0
28 14 0
28 -5 0
-14 5 -28 0
-30 1 0
-30 -29 0
-1 29 30 0
28 -30 -31 0
-28 30 -31 0
28 30 31 0
-28 -30 31 0
32 -27 0
32 -31 0
27 31 -32 0
-33 20 0
-33 32 0
-20 -32 33 0
34 -6 0
34 -21 0
6 21 -34 0
-35 -1 0
-35 -34 0
1 34 35 0
38 37 0
38 -36 0
-37 36 -38 0
-36 38 -39 0
36 -38 -39 0
-36 -38 39 0
36 38 39 0
-40 35 0
-40 39 0
-35 -39 40 0
1 14 -41 0
-1 -14 -41 0
1 -14 41 0
-1 14 41 0
41 -15 -42 0
-41 15 -42 0
41 15 42 0
-41 -15 42 0
10 42 -43 0
-10 -42 -43 0
10 -42 43 0
-10 42 43 0
44 7 0
44 43 0
-7 -43 -44 0
-45 -21 0
-45 44 0
21 -44 45 0
-46 -1 0
-46 45 0
1 -45 46 0
47 40 0
47 46 0
-40 -46 -47 0
-18 -48 0
18 -48 0
49 48 0
49 36 0
-48 -36 -49 0
-50 18 0
-50 49 0
-18 -49 50 0
51 6 0
51 50 0
-6 -50 -51 0
52 -51 0
52 -38 0
51 38 -52 0
-37 36 -53 0
37 -36 -53 0
-37 -36 53 0
37 36 53 0
14 9 -54 0
-14 -9 -54 0
14 -9 54 0
-14 9 54 0
55 -53 0
55 -54 0
53 54 -55 0
-52 55 -56 0
52 -55 -56 0
-52 -55 56 0
52 55 56 0
-57 -47 0
-57 56 0
47 -56 57 0
-33 57 -58 0
33 -57 -58 0
-33 -57 58 0
33 57 58 0
4 58 -59 0
-4 -58 -59 0
4 -58 59 0
-4 58 59 0
-60 -6 0
-60 -23 0
6 23 60 0
60 -2 -61 0
-60 2 -61 0
60 2 61 0
-60 -2 61 0
43 61 -62 0
-43 -61 -62 0
43 -61 62 0
-43 61 62 0
-63 21 0
-63 36 0
-21 -36 63 0
14 63 -64 0
-14 -63 -64 0
14 -63 64 0
-14 63 64 0
62 -64 -65 0
-62 64 -65 0
62 64 65 0
-62 -64 65 0
-66 -48 0
-66 -23 0
48 23 66 0
69 -67 0
69 68 0
67 -68 -69 0
-70 -28 0
-70 -60 0
28 60 70 0
-71 -69 0
-71 70 0
69 -70 71 0
72 66 0
72 71 0
-66 -71 -72 0
-73 65 0
-73 -72 0
-65 72 73 0
75 -74 0
75 14 0
74 -14 -75 0
76 61 0
76 -75 0
-61 75 -76 0
77 5 -78 0
-77 -5 -78 0
77 -5 78 0
-77 5 78 0
-79 -67 0
-79 60 0
67 -60 79 0
80 -79 0
80 -70 0
79 70 -80 0
-81 -38 0
-81 80 0
38 -80 81 0
-81 -37 -82 0
81 37 -82 0
-81 37 82 0
81 -37 82 0
83 78 0
83 82 0
-78 -82 -83 0
-85 -24 0
-85 -9 0
24 9 85 0
-85 -11 -86 0
85 11 -86 0
-85 11 86 0
85 -11 86 0
-87 6 0
-87 -66 0
-6 66 87 0
-88 86 0
-88 -87 0
-86 87 88 0
-89 -84 0
-89 88 0
84 -88 89 0
90 -34 0
90 -77 0
34 77 -90 0
89 90 -91 0
-89 -90 -91 0
89 -90 91 0
-89 90 91 0
-92 83 0
-92 91 0
-83 -91 92 0
-93 -76 0
-93 -92 0
76 92 93 0
94 25 0
94 -75 0
-25 75 -94 0
-95 23 0
-95 29 0
-23 -29 95 0
-96 -53 0
-96 -95 0
53 95 96 0
-97 -8 0
-97 -96 0
8 96 97 0
-98 -1 0
-98 18 0
1 -18 98 0
-41 -98 -99 0
41 98 -99 0
-41 98 99 0
41 -98 99 0
100 97 0
100 -99 0
-97 99 -100 0
101 -100 0
101 -66 0
100 66 -101 0
-102 -94 0
-102 101 0
94 -101 102 0
-10 -9 -103 0
10 9 -103 0
-10 9 103 0
10 -9 103 0
104 -5 0
104 10 0
5 -10 -104 0
105 103 0
105 104 0
-103 -104 -105 0
38 -1 -106 0
-38 1 -106 0
38 1 106 0
-38 -1 106 0
105 106 -107 0
-105 -106 -107 0
105 -106 107 0
-105 106 107 0
102 -107 -108 0
-102 107 -108 0
102 107 108 0
-102 -107 108 0
109 93 0
109 108 0
-93 -108 -109 0
110 -73 0
110 109 0
73 -109 -110 0
-111 59 0
-111 110 0
-59 -110 111 0
112 95 0
112 -26 0
-95 26 -112 0
113 38 0
113 -66 0
-38 66 -113 0
-112 -113 -114 0
112 113 -114 0
-112 113 114 0
112 -113 114 0
-115 45 -116 0
115 -45 -116 0
-115 -45 116 0
115 45 116 0
-117 49 0
-117 -38 0
-49 38 117 0
-118 116 0
-118 -117 0
-116 117 118 0
-18 -3 -119 0
18 3 -119 0
-18 3 119 0
18 -3 119 0
-63 -24 -120 0
63 24 -120 0
-63 24 120 0
63 -24 120 0
-119 -120 -121 0
119 120 -121 0
-119 120 121 0
119 -120 121 0
-70 -68 -122 0
70 68 -122 0
-70 68 122 0
70 -68 122 0
123 121 0
123 -122 0
-121 122 -123 0
124 118 0
124 -123 0
-118 123 -124 0
-114 124 -125 0
114 -124 -125 0
-114 -124 125 0
114 124 125 0
-9 -68 -126 0
9 68 -126 0
-9 68 126 0
9 -68 126 0
127 23 0
127 -21 0
-23 21 -127 0
128 127 0
128 22 0
-127 -22 -128 0
126 -128 -129 0
-126 128 -129 0
126 128 129 0
-126 -128 129 0
130 125 0
130 129 0
-125 -129 -130 0
111 -130 -131 0
-111 130 -131 0
111 130 131 0
-111 -130 131 0
-25 113 -100 -122 20 0
20 -102 10 14 109 0
-96 -110 8 112 -19 0
14 42 75 19 57 73 0
-23 80 -67 -128 116 89 0
-90 -116 -110 15 -98 0
-111 -32 -47 -22 27 64 -9 110 -92 0
-95 58 40 0
-29 9 11 15 44 52 0
-66 -100 -29 128 11 47 -88 0
89 78 -25 106 16 -131 42 86 45 -26 0
120 106 -84 -38 -92 -110 0
-3 65 -9 -55 86 -53 -14 62 -95 0
106 -112 -79 0
-89 27 -24 -38 -41 -123 7 0
84 99 -21 37 -94 -98 -80 44 -82 110 0
7 65 -128 79 -48 119 0
-127 -104 -8 -47 0
-31 -109 17 -27 25 -78 7 126 -45 0
-61 46 3 -56 -44 -110 0
68 -53 121 -76 -128 85 93 0
-125 -110 -83 -14 -61 -32 -79 114 0
120 127 -121 -93 0
-22 -111 -75 99 51 0
118 81 -15 -45 41 -95 28 -122 0
-28 116 -131 0
128 -28 63 -116 0
-50 -14 101 -98 0
-95 91 106 -20 42 0
125 -98 -109 -42 46 90 -114 103 0
-101 25 75 119 -33 -58 0
40 19 24 80 -43 0
-61 35 87 66 -115 86 -26 0
36 98 33 97 0
-117 41 101 -105 70 -115 119 0
77 12 -125 104 0
-119 -112 -16 104 -80 -8 98 100 0
-1 25 69 96 -66 -53 0
-13 29 -37 -50 80 0
-88 36 -80 15 -85 -58 79 81 -112 -118 0
89 72 48 -77 0
121 35 -15 -34 11 0
-48 -116 -69 17 -29 71 23 0
-40 28 20 -9 0
-90 -72 -13 26 0
-2 29 -57 5 -78 95 -69 0
-29 -107 -75 46 128 -111 0
79 -34 -84 -29 -114 87 0
119 -53 10 -46 -52 23 106 85 -34 0
-123 10 109 0
90 -32 -111 -9 -15 0
-63 22 -51 12 54 16 0
-50 9 -48 64 0
25 -97 74 -39 106 38 -44 -79 35 31 0
-74 -91 60 -11 0
-98 53 32 -14 -125 25 -72 96 21 95 0
-21 -13 71 0
-45 -59 70 28 -23 -20 0
100 107 19 -52 99 -16 -42 0
-32 124 -8 49 -10 -39 60 -108 -48 0
-75 78 95 -82 41 0
102 22 14 68 1 81 -83 -113 64 109 0
-37 -16 80 111 100 0
109 -81 -8 88 44 24 -1 -48 0
28 77 -103 0
-49 127 87 0
-130 63 -2 15 -72 18 -68 50 0
6 -109 -83 -51 -77 19 0
-83 45 -9 -115 25 -108 119 0
62 115 -48 0
130 108 -15 -110 112 -82 -27 3 0
-20 85 92 -13 0
56 -126 -128 -103 18 53 -78 -130 0
64 -101 8 -97 -99 -9 93 87 -39 0
131 0
